32872
0 0 0 0 1 0 1 0 0 0 1 0 0 1 1 0 0 1 1 0 0 0 0 1 0 1 0 0 1 1 
18 6 17 18 10 6 10 28 18 28 4 28 13 13 28 18 13 10 18 28 18 18 23 17 10 18 18 14 29 23 4 4 4 28 28 6 14 13 17 23 18 14 6 29 13 4 13 23 14 14 17 17 23 28 10 6 25 14 18 25 29 14 18 13 13 25 23 14 4 25 25 6 29 14 23 23 10 10 10 18 10 17 4 25 29 13 6 14 18 25 28 6 25 25 23 13 28 6 17 28 14 23 25 18 4 17 4 17 18 13 4 29 18 6 6 13 28 25 14 13 14 6 28 4 4 28 28 6 4 17 28 18 25 10 23 14 13 13 28 10 6 18 6 25 25 23 28 25 18 25 28 17 23 17 13 25 23 14 13 13 13 28 10 17 23 28 23 4 13 17 13 10 14 14 4 14 17 10 29 10 23 17 23 6 6 13 6 23 17 17 17 17 6 4 25 6 18 17 10 4 
